(declare-fun temp107709_1 () (_ BitVec 64))
(declare-fun temp107709_2 () (_ BitVec 64))
(declare-fun var77740 () (_ BitVec 64))
(declare-fun k!0 () Bool)
(declare-fun ARGNAME_input_1_NAMEEND_DIM () (_ BitVec 64))
(declare-fun ARGNAME_data_format_NAMEEND_STRFMT () (_ BitVec 64))
(declare-fun temp107709_3 () (_ BitVec 64))
(declare-fun ARGNAME_input_2_NAMEEND_DIM () (_ BitVec 64))
(declare-fun var77770 () (_ BitVec 64))
(declare-fun temp107709_4 () (_ BitVec 64))
(declare-fun temp107709_5 () (_ BitVec 64))
(declare-fun ARGNAME_input_1_NAMEEND_DIMSIZE
             ()
             (Array (_ BitVec 64) (_ BitVec 64)))
(declare-fun temp107709_6 () (_ BitVec 64))
(declare-fun temp107709_7 () (_ BitVec 64))
(declare-fun temp107709_8 () (_ BitVec 64))
(declare-fun temp107709_9 () (_ BitVec 64))
(declare-fun temp107709_10 () (_ BitVec 64))
(declare-fun temp107709_11 () (_ BitVec 64))
(declare-fun temp107709_12 () (_ BitVec 64))
(declare-fun temp107709_13 () (_ BitVec 64))
(declare-fun temp107709_14 () (_ BitVec 64))
(declare-fun temp107709_15 () (_ BitVec 64))
(declare-fun temp107709_16 () (_ BitVec 64))
(declare-fun temp107709_17 () (_ BitVec 64))
(declare-fun temp107709_18 () (_ BitVec 64))
(declare-fun var77799 () (_ BitVec 64))
(declare-fun temp107709_19 () (_ BitVec 64))
(declare-fun ARGNAME_input_2_NAMEEND_DIMSIZE
             ()
             (Array (_ BitVec 64) (_ BitVec 64)))
(declare-fun temp107709_20 () (_ BitVec 64))
(declare-fun temp107709_21 () (_ BitVec 64))
(declare-fun temp107709_22 () (_ BitVec 64))
(declare-fun temp107709_23 () (_ BitVec 64))
(declare-fun temp107709_24 () (_ BitVec 64))
(declare-fun temp107709_25 () (_ BitVec 64))
(declare-fun temp107709_26 () (_ BitVec 64))
(declare-fun temp107709_27 () (_ BitVec 64))
(declare-fun temp107709_28 () (_ BitVec 64))
(declare-fun temp107709_29 () (_ BitVec 64))
(declare-fun temp107709_30 () (_ BitVec 64))
(declare-fun temp107709_31 () (_ BitVec 64))
(declare-fun temp107709_32 () (_ BitVec 64))
(declare-fun var77832 () (_ BitVec 64))
(declare-fun temp107709_33 () (_ BitVec 64))
(declare-fun temp107709_34 () (_ BitVec 64))
(declare-fun var77833 () (_ BitVec 64))
(declare-fun var77834 () (_ BitVec 64))
(declare-fun temp107709_35 () (_ BitVec 64))
(declare-fun temp107709_36 () (_ BitVec 64))
(declare-fun var275510 () (_ BitVec 64))
(declare-fun temp107709_37 () (_ BitVec 64))
(declare-fun var275528 () (_ BitVec 64))
(declare-fun temp107709_38 () (_ BitVec 64))
(declare-fun temp107709_39 () (_ BitVec 64))
(declare-fun var406582 () (_ BitVec 64))
(declare-fun temp107709_40 () (_ BitVec 64))
(declare-fun var406600 () (_ BitVec 64))
(declare-fun temp107709_41 () (_ BitVec 64))
(declare-fun temp107709_42 () (_ BitVec 64))
(declare-fun var537654 () (_ BitVec 64))
(declare-fun temp107709_43 () (_ BitVec 64))
(declare-fun var537672 () (_ BitVec 64))
(declare-fun temp107709_44 () (_ BitVec 64))
(declare-fun temp107709_46 () (_ BitVec 64))
(declare-fun temp107709_45 () (_ BitVec 64))
(declare-fun temp107709_48 () (_ BitVec 64))
(declare-fun temp107709_47 () (_ BitVec 64))
(declare-fun temp107709_50 () (_ BitVec 64))
(declare-fun temp107709_49 () (_ BitVec 64))
(declare-fun temp107709_51 () (_ BitVec 64))
(declare-fun var861259 () (_ BitVec 64))
(declare-fun var861238 () (_ BitVec 64))
(declare-fun var664611 () (_ BitVec 64))
(declare-fun temp107709_52 () (_ BitVec 64))
(declare-fun temp107709_53 () (_ BitVec 64))
(declare-fun var1057842 () (_ BitVec 64))
(declare-fun temp107709_54 () (_ BitVec 64))
(declare-fun var1123378 () (_ BitVec 64))
(declare-fun temp107709_55 () (_ BitVec 64))
(declare-fun var1188914 () (_ BitVec 64))
(assert (or (= ARGNAME_data_format_NAMEEND_STRFMT #x0000000000000000)
    (= ARGNAME_data_format_NAMEEND_STRFMT #x0000000000000001)
    (= ARGNAME_data_format_NAMEEND_STRFMT #x0000000000000002)
    (= ARGNAME_data_format_NAMEEND_STRFMT #x0000000000000003)
    (= ARGNAME_data_format_NAMEEND_STRFMT #x0000000000000004)
    (= ARGNAME_data_format_NAMEEND_STRFMT #x0000000000000005)))
(assert (= temp107709_1 #x0000000000000005))
(assert (= var77740
   (ite (= ARGNAME_input_1_NAMEEND_DIM temp107709_1)
        #x0000000000000001
        #x0000000000000000)))
(assert (= temp107709_2 #x0000000000000001))
(assert (= var77740 temp107709_2))
(assert (= temp107709_3 #x0000000000000005))
(assert (= var77770
   (ite (= ARGNAME_input_2_NAMEEND_DIM temp107709_3)
        #x0000000000000001
        #x0000000000000000)))
(assert (= temp107709_4 #x0000000000000001))
(assert (= var77770 temp107709_4))
(assert (= temp107709_5 #x0000000000000000))
(assert (= temp107709_6 (select ARGNAME_input_1_NAMEEND_DIMSIZE temp107709_5)))
(assert (= temp107709_7 #x0000000000000001))
(assert (= temp107709_8 (select ARGNAME_input_1_NAMEEND_DIMSIZE temp107709_7)))
(assert (= temp107709_9 #x0000000000000002))
(assert (= temp107709_10 (select ARGNAME_input_1_NAMEEND_DIMSIZE temp107709_9)))
(assert (= temp107709_11 #x0000000000000003))
(assert (= temp107709_12 (select ARGNAME_input_1_NAMEEND_DIMSIZE temp107709_11)))
(assert (= temp107709_13 #x0000000000000004))
(assert (= temp107709_14 (select ARGNAME_input_1_NAMEEND_DIMSIZE temp107709_13)))
(assert (= temp107709_15 #x0000000000000005))
(assert (= temp107709_16 (select ARGNAME_input_1_NAMEEND_DIMSIZE temp107709_15)))
(assert (= temp107709_17 #x0000000000000003))
(assert (= temp107709_18 (select ARGNAME_input_1_NAMEEND_DIMSIZE temp107709_17)))
(assert (= var77799 temp107709_18))
(assert (= temp107709_19 #x0000000000000000))
(assert (= temp107709_20 (select ARGNAME_input_2_NAMEEND_DIMSIZE temp107709_19)))
(assert (= temp107709_21 #x0000000000000001))
(assert (= temp107709_22 (select ARGNAME_input_2_NAMEEND_DIMSIZE temp107709_21)))
(assert (= temp107709_23 #x0000000000000002))
(assert (= temp107709_24 (select ARGNAME_input_2_NAMEEND_DIMSIZE temp107709_23)))
(assert (= temp107709_25 #x0000000000000003))
(assert (= temp107709_26 (select ARGNAME_input_2_NAMEEND_DIMSIZE temp107709_25)))
(assert (= temp107709_27 #x0000000000000004))
(assert (= temp107709_28 (select ARGNAME_input_2_NAMEEND_DIMSIZE temp107709_27)))
(assert (= temp107709_29 #x0000000000000005))
(assert (= temp107709_30 (select ARGNAME_input_2_NAMEEND_DIMSIZE temp107709_29)))
(assert (= temp107709_31 #x0000000000000004))
(assert (= temp107709_32 (select ARGNAME_input_2_NAMEEND_DIMSIZE temp107709_31)))
(assert (= var77832 temp107709_32))
(assert (= temp107709_33 #x0000000000000004))
(assert (= temp107709_34 (select ARGNAME_input_1_NAMEEND_DIMSIZE temp107709_33)))
(assert (= var77833 temp107709_34))
(assert (= var77834 (ite (= var77832 var77833) #x0000000000000001 #x0000000000000000)))
(assert (= temp107709_35 #x0000000000000001))
(assert (= var77834 temp107709_35))
(assert (= temp107709_36 #x0000000000000001))
(assert (= var275510 temp107709_36))
(assert (= temp107709_37 #x0000000000000001))
(assert (= var275528
   (ite (bvslt var275510 temp107709_37) #x0000000000000001 #x0000000000000000)))
(assert (= temp107709_38 #x0000000000000000))
(assert (= var275528 temp107709_38))
(assert (= temp107709_39 #x0000000000000001))
(assert (= var406582 temp107709_39))
(assert (= temp107709_40 #x0000000000000001))
(assert (= var406600
   (ite (bvslt var406582 temp107709_40) #x0000000000000001 #x0000000000000000)))
(assert (= temp107709_41 #x0000000000000000))
(assert (= var406600 temp107709_41))
(assert (= temp107709_42 #x0000000000000001))
(assert (= var537654 temp107709_42))
(assert (= temp107709_43 #x0000000000000001))
(assert (= var537672
   (ite (bvslt var537654 temp107709_43) #x0000000000000001 #x0000000000000000)))
(assert (= temp107709_44 #x0000000000000000))
(assert (= var537672 temp107709_44))
(assert (= temp107709_46 #x00000000000000ff))
(assert (= temp107709_45 temp107709_46))
(assert (= temp107709_48 #x00000000000000ff))
(assert (= temp107709_47 temp107709_48))
(assert (= temp107709_50 #x00000000000000ff))
(assert (= temp107709_49 temp107709_50))
(assert (= temp107709_51 #x0000000000000000))
(assert (= var861259 temp107709_51))
(assert (= var861238 var861259))
(assert (= var664611 var861238))
(assert (= temp107709_52 #x0000000000000000))
(assert (= var664611 temp107709_52))
(assert (= temp107709_53 #x0000000000008000))
(assert (= var1057842 temp107709_53))
(assert (= temp107709_54 #x0000000000040000))
(assert (= var1123378 temp107709_54))
(assert (= temp107709_55 #x0000000000200000))
(assert (= var1188914 temp107709_55))
(model-add temp107709_1 () (_ BitVec 64) #x0000000000000005)
(model-add temp107709_2 () (_ BitVec 64) #x0000000000000001)
(model-add var77740 () (_ BitVec 64) #x0000000000000001)
(model-del k!0)
(model-add ARGNAME_input_1_NAMEEND_DIM
           ()
           (_ BitVec 64)
           (ite k!0 #x0000000000000005 (bvnot #x0000000000000005)))

